(set-logic QF_LRA)
(declare-fun X0 () Real )
(declare-fun Y0 () Real )
(declare-fun X1 () Real )
(declare-fun Y1 () Real )
(declare-fun X2 () Real )
(declare-fun Y2 () Real )
(declare-fun X3 () Real )
(declare-fun Y3 () Real )
(declare-fun X4 () Real )
(declare-fun Y4 () Real )
(declare-fun X5 () Real )
(declare-fun Y5 () Real )
(declare-fun X6 () Real )
(declare-fun Y6 () Real )
(declare-fun X7 () Real )
(declare-fun Y7 () Real )
(declare-fun X8 () Real )
(declare-fun Y8 () Real )
(declare-fun X9 () Real )
(declare-fun Y9 () Real )
(declare-fun X10 () Real )
(declare-fun Y10 () Real )
(declare-fun X11 () Real )
(declare-fun Y11 () Real )
(declare-fun Z () Real )
(declare-fun k () Real )
(assert (let
(( $goal (>= Z k) ))
(let
((
$phi ( and 
( or ( <= ( + X0 66 ) X1 )  ( <= ( + X1 8 ) X0 )  ( <= ( + Y0 23 ) Y1 )  ( <= ( + Y1 6 ) Y0 )  )
( or ( <= ( + X0 66 ) X2 )  ( <= ( + X2 91 ) X0 )  ( <= ( + Y0 23 ) Y2 )  ( <= ( + Y2 73 ) Y0 )  )
( or ( <= ( + X0 66 ) X3 )  ( <= ( + X3 35 ) X0 )  ( <= ( + Y0 23 ) Y3 )  ( <= ( + Y3 35 ) Y0 )  )
( or ( <= ( + X0 66 ) X4 )  ( <= ( + X4 96 ) X0 )  ( <= ( + Y0 23 ) Y4 )  ( <= ( + Y4 57 ) Y0 )  )
( or ( <= ( + X0 66 ) X5 )  ( <= ( + X5 5 ) X0 )  ( <= ( + Y0 23 ) Y5 )  ( <= ( + Y5 29 ) Y0 )  )
( or ( <= ( + X0 66 ) X6 )  ( <= ( + X6 25 ) X0 )  ( <= ( + Y0 23 ) Y6 )  ( <= ( + Y6 12 ) Y0 )  )
( or ( <= ( + X0 66 ) X7 )  ( <= ( + X7 29 ) X0 )  ( <= ( + Y0 23 ) Y7 )  ( <= ( + Y7 93 ) Y0 )  )
( or ( <= ( + X0 66 ) X8 )  ( <= ( + X8 84 ) X0 )  ( <= ( + Y0 23 ) Y8 )  ( <= ( + Y8 11 ) Y0 )  )
( or ( <= ( + X0 66 ) X9 )  ( <= ( + X9 61 ) X0 )  ( <= ( + Y0 23 ) Y9 )  ( <= ( + Y9 32 ) Y0 )  )
( or ( <= ( + X0 66 ) X10 )  ( <= ( + X10 89 ) X0 )  ( <= ( + Y0 23 ) Y10 )  ( <= ( + Y10 54 ) Y0 )  )
( or ( <= ( + X0 66 ) X11 )  ( <= ( + X11 36 ) X0 )  ( <= ( + Y0 23 ) Y11 )  ( <= ( + Y11 95 ) Y0 )  )
( or ( <= ( + X1 8 ) X2 )  ( <= ( + X2 91 ) X1 )  ( <= ( + Y1 6 ) Y2 )  ( <= ( + Y2 73 ) Y1 )  )
( or ( <= ( + X1 8 ) X3 )  ( <= ( + X3 35 ) X1 )  ( <= ( + Y1 6 ) Y3 )  ( <= ( + Y3 35 ) Y1 )  )
( or ( <= ( + X1 8 ) X4 )  ( <= ( + X4 96 ) X1 )  ( <= ( + Y1 6 ) Y4 )  ( <= ( + Y4 57 ) Y1 )  )
( or ( <= ( + X1 8 ) X5 )  ( <= ( + X5 5 ) X1 )  ( <= ( + Y1 6 ) Y5 )  ( <= ( + Y5 29 ) Y1 )  )
( or ( <= ( + X1 8 ) X6 )  ( <= ( + X6 25 ) X1 )  ( <= ( + Y1 6 ) Y6 )  ( <= ( + Y6 12 ) Y1 )  )
( or ( <= ( + X1 8 ) X7 )  ( <= ( + X7 29 ) X1 )  ( <= ( + Y1 6 ) Y7 )  ( <= ( + Y7 93 ) Y1 )  )
( or ( <= ( + X1 8 ) X8 )  ( <= ( + X8 84 ) X1 )  ( <= ( + Y1 6 ) Y8 )  ( <= ( + Y8 11 ) Y1 )  )
( or ( <= ( + X1 8 ) X9 )  ( <= ( + X9 61 ) X1 )  ( <= ( + Y1 6 ) Y9 )  ( <= ( + Y9 32 ) Y1 )  )
( or ( <= ( + X1 8 ) X10 )  ( <= ( + X10 89 ) X1 )  ( <= ( + Y1 6 ) Y10 )  ( <= ( + Y10 54 ) Y1 )  )
( or ( <= ( + X1 8 ) X11 )  ( <= ( + X11 36 ) X1 )  ( <= ( + Y1 6 ) Y11 )  ( <= ( + Y11 95 ) Y1 )  )
( or ( <= ( + X2 91 ) X3 )  ( <= ( + X3 35 ) X2 )  ( <= ( + Y2 73 ) Y3 )  ( <= ( + Y3 35 ) Y2 )  )
( or ( <= ( + X2 91 ) X4 )  ( <= ( + X4 96 ) X2 )  ( <= ( + Y2 73 ) Y4 )  ( <= ( + Y4 57 ) Y2 )  )
( or ( <= ( + X2 91 ) X5 )  ( <= ( + X5 5 ) X2 )  ( <= ( + Y2 73 ) Y5 )  ( <= ( + Y5 29 ) Y2 )  )
( or ( <= ( + X2 91 ) X6 )  ( <= ( + X6 25 ) X2 )  ( <= ( + Y2 73 ) Y6 )  ( <= ( + Y6 12 ) Y2 )  )
( or ( <= ( + X2 91 ) X7 )  ( <= ( + X7 29 ) X2 )  ( <= ( + Y2 73 ) Y7 )  ( <= ( + Y7 93 ) Y2 )  )
( or ( <= ( + X2 91 ) X8 )  ( <= ( + X8 84 ) X2 )  ( <= ( + Y2 73 ) Y8 )  ( <= ( + Y8 11 ) Y2 )  )
( or ( <= ( + X2 91 ) X9 )  ( <= ( + X9 61 ) X2 )  ( <= ( + Y2 73 ) Y9 )  ( <= ( + Y9 32 ) Y2 )  )
( or ( <= ( + X2 91 ) X10 )  ( <= ( + X10 89 ) X2 )  ( <= ( + Y2 73 ) Y10 )  ( <= ( + Y10 54 ) Y2 )  )
( or ( <= ( + X2 91 ) X11 )  ( <= ( + X11 36 ) X2 )  ( <= ( + Y2 73 ) Y11 )  ( <= ( + Y11 95 ) Y2 )  )
( or ( <= ( + X3 35 ) X4 )  ( <= ( + X4 96 ) X3 )  ( <= ( + Y3 35 ) Y4 )  ( <= ( + Y4 57 ) Y3 )  )
( or ( <= ( + X3 35 ) X5 )  ( <= ( + X5 5 ) X3 )  ( <= ( + Y3 35 ) Y5 )  ( <= ( + Y5 29 ) Y3 )  )
( or ( <= ( + X3 35 ) X6 )  ( <= ( + X6 25 ) X3 )  ( <= ( + Y3 35 ) Y6 )  ( <= ( + Y6 12 ) Y3 )  )
( or ( <= ( + X3 35 ) X7 )  ( <= ( + X7 29 ) X3 )  ( <= ( + Y3 35 ) Y7 )  ( <= ( + Y7 93 ) Y3 )  )
( or ( <= ( + X3 35 ) X8 )  ( <= ( + X8 84 ) X3 )  ( <= ( + Y3 35 ) Y8 )  ( <= ( + Y8 11 ) Y3 )  )
( or ( <= ( + X3 35 ) X9 )  ( <= ( + X9 61 ) X3 )  ( <= ( + Y3 35 ) Y9 )  ( <= ( + Y9 32 ) Y3 )  )
( or ( <= ( + X3 35 ) X10 )  ( <= ( + X10 89 ) X3 )  ( <= ( + Y3 35 ) Y10 )  ( <= ( + Y10 54 ) Y3 )  )
( or ( <= ( + X3 35 ) X11 )  ( <= ( + X11 36 ) X3 )  ( <= ( + Y3 35 ) Y11 )  ( <= ( + Y11 95 ) Y3 )  )
( or ( <= ( + X4 96 ) X5 )  ( <= ( + X5 5 ) X4 )  ( <= ( + Y4 57 ) Y5 )  ( <= ( + Y5 29 ) Y4 )  )
( or ( <= ( + X4 96 ) X6 )  ( <= ( + X6 25 ) X4 )  ( <= ( + Y4 57 ) Y6 )  ( <= ( + Y6 12 ) Y4 )  )
( or ( <= ( + X4 96 ) X7 )  ( <= ( + X7 29 ) X4 )  ( <= ( + Y4 57 ) Y7 )  ( <= ( + Y7 93 ) Y4 )  )
( or ( <= ( + X4 96 ) X8 )  ( <= ( + X8 84 ) X4 )  ( <= ( + Y4 57 ) Y8 )  ( <= ( + Y8 11 ) Y4 )  )
( or ( <= ( + X4 96 ) X9 )  ( <= ( + X9 61 ) X4 )  ( <= ( + Y4 57 ) Y9 )  ( <= ( + Y9 32 ) Y4 )  )
( or ( <= ( + X4 96 ) X10 )  ( <= ( + X10 89 ) X4 )  ( <= ( + Y4 57 ) Y10 )  ( <= ( + Y10 54 ) Y4 )  )
( or ( <= ( + X4 96 ) X11 )  ( <= ( + X11 36 ) X4 )  ( <= ( + Y4 57 ) Y11 )  ( <= ( + Y11 95 ) Y4 )  )
( or ( <= ( + X5 5 ) X6 )  ( <= ( + X6 25 ) X5 )  ( <= ( + Y5 29 ) Y6 )  ( <= ( + Y6 12 ) Y5 )  )
( or ( <= ( + X5 5 ) X7 )  ( <= ( + X7 29 ) X5 )  ( <= ( + Y5 29 ) Y7 )  ( <= ( + Y7 93 ) Y5 )  )
( or ( <= ( + X5 5 ) X8 )  ( <= ( + X8 84 ) X5 )  ( <= ( + Y5 29 ) Y8 )  ( <= ( + Y8 11 ) Y5 )  )
( or ( <= ( + X5 5 ) X9 )  ( <= ( + X9 61 ) X5 )  ( <= ( + Y5 29 ) Y9 )  ( <= ( + Y9 32 ) Y5 )  )
( or ( <= ( + X5 5 ) X10 )  ( <= ( + X10 89 ) X5 )  ( <= ( + Y5 29 ) Y10 )  ( <= ( + Y10 54 ) Y5 )  )
( or ( <= ( + X5 5 ) X11 )  ( <= ( + X11 36 ) X5 )  ( <= ( + Y5 29 ) Y11 )  ( <= ( + Y11 95 ) Y5 )  )
( or ( <= ( + X6 25 ) X7 )  ( <= ( + X7 29 ) X6 )  ( <= ( + Y6 12 ) Y7 )  ( <= ( + Y7 93 ) Y6 )  )
( or ( <= ( + X6 25 ) X8 )  ( <= ( + X8 84 ) X6 )  ( <= ( + Y6 12 ) Y8 )  ( <= ( + Y8 11 ) Y6 )  )
( or ( <= ( + X6 25 ) X9 )  ( <= ( + X9 61 ) X6 )  ( <= ( + Y6 12 ) Y9 )  ( <= ( + Y9 32 ) Y6 )  )
( or ( <= ( + X6 25 ) X10 )  ( <= ( + X10 89 ) X6 )  ( <= ( + Y6 12 ) Y10 )  ( <= ( + Y10 54 ) Y6 )  )
( or ( <= ( + X6 25 ) X11 )  ( <= ( + X11 36 ) X6 )  ( <= ( + Y6 12 ) Y11 )  ( <= ( + Y11 95 ) Y6 )  )
( or ( <= ( + X7 29 ) X8 )  ( <= ( + X8 84 ) X7 )  ( <= ( + Y7 93 ) Y8 )  ( <= ( + Y8 11 ) Y7 )  )
( or ( <= ( + X7 29 ) X9 )  ( <= ( + X9 61 ) X7 )  ( <= ( + Y7 93 ) Y9 )  ( <= ( + Y9 32 ) Y7 )  )
( or ( <= ( + X7 29 ) X10 )  ( <= ( + X10 89 ) X7 )  ( <= ( + Y7 93 ) Y10 )  ( <= ( + Y10 54 ) Y7 )  )
( or ( <= ( + X7 29 ) X11 )  ( <= ( + X11 36 ) X7 )  ( <= ( + Y7 93 ) Y11 )  ( <= ( + Y11 95 ) Y7 )  )
( or ( <= ( + X8 84 ) X9 )  ( <= ( + X9 61 ) X8 )  ( <= ( + Y8 11 ) Y9 )  ( <= ( + Y9 32 ) Y8 )  )
( or ( <= ( + X8 84 ) X10 )  ( <= ( + X10 89 ) X8 )  ( <= ( + Y8 11 ) Y10 )  ( <= ( + Y10 54 ) Y8 )  )
( or ( <= ( + X8 84 ) X11 )  ( <= ( + X11 36 ) X8 )  ( <= ( + Y8 11 ) Y11 )  ( <= ( + Y11 95 ) Y8 )  )
( or ( <= ( + X9 61 ) X10 )  ( <= ( + X10 89 ) X9 )  ( <= ( + Y9 32 ) Y10 )  ( <= ( + Y10 54 ) Y9 )  )
( or ( <= ( + X9 61 ) X11 )  ( <= ( + X11 36 ) X9 )  ( <= ( + Y9 32 ) Y11 )  ( <= ( + Y11 95 ) Y9 )  )
( or ( <= ( + X10 89 ) X11 )  ( <= ( + X11 36 ) X10 )  ( <= ( + Y10 54 ) Y11 )  ( <= ( + Y11 95 ) Y10 )  )
( >= X0 0)
( <= ( + X0 66) Z)
( >= Y0 0)
( <= ( + Y0 23 ) 100)
( >= X1 0)
( <= ( + X1 8) Z)
( >= Y1 0)
( <= ( + Y1 6 ) 100)
( >= X2 0)
( <= ( + X2 91) Z)
( >= Y2 0)
( <= ( + Y2 73 ) 100)
( >= X3 0)
( <= ( + X3 35) Z)
( >= Y3 0)
( <= ( + Y3 35 ) 100)
( >= X4 0)
( <= ( + X4 96) Z)
( >= Y4 0)
( <= ( + Y4 57 ) 100)
( >= X5 0)
( <= ( + X5 5) Z)
( >= Y5 0)
( <= ( + Y5 29 ) 100)
( >= X6 0)
( <= ( + X6 25) Z)
( >= Y6 0)
( <= ( + Y6 12 ) 100)
( >= X7 0)
( <= ( + X7 29) Z)
( >= Y7 0)
( <= ( + Y7 93 ) 100)
( >= X8 0)
( <= ( + X8 84) Z)
( >= Y8 0)
( <= ( + Y8 11 ) 100)
( >= X9 0)
( <= ( + X9 61) Z)
( >= Y9 0)
( <= ( + Y9 32 ) 100)
( >= X10 0)
( <= ( + X10 89) Z)
( >= Y10 0)
( <= ( + Y10 54 ) 100)
( >= X11 0)
( <= ( + X11 36) Z)
( >= Y11 0)
( <= ( + Y11 95 ) 100)
) )
)(=> $phi $goal))))